Set parameter TSPort to value 51199
Set parameter TokenServer to value "open-license1.lanl.gov"
Set parameter TimeLimit to value 1024
Set parameter Threads to value 1
Gurobi Optimizer version 10.0.3 build v10.0.3rc0 (linux64)

CPU model: Intel(R) Xeon(R) CPU E5-2695 v4 @ 2.10GHz, instruction set [SSE2|AVX|AVX2]
Thread count: 36 physical cores, 72 logical processors, using up to 1 threads

Optimize a model with 0 rows, 1173 columns and 0 nonzeros
Model fingerprint: 0x4e71d82a
Model has 5176 quadratic objective terms
Variable types: 0 continuous, 1173 integer (1173 binary)
Coefficient statistics:
  Matrix range     [0e+00, 0e+00]
  Objective range  [2e+00, 3e+01]
  QObjective range [8e+00, 8e+00]
  Bounds range     [1e+00, 1e+00]
  RHS range        [0e+00, 0e+00]
Found heuristic solution: objective 0.0000000
Found heuristic solution: objective -1982.000000
Found heuristic solution: objective -7044.000000
Found heuristic solution: objective -7056.000000
Presolve time: 0.29s
Presolved: 5176 rows, 6349 columns, 15528 nonzeros
Variable types: 0 continuous, 6349 integer (6349 binary)

Root relaxation: objective -9.763000e+03, 1630 iterations, 0.03 seconds (0.01 work units)

    Nodes    |    Current Node    |     Objective Bounds      |     Work
 Expl Unexpl |  Obj  Depth IntInf | Incumbent    BestBd   Gap | It/Node Time

     0     0 -9763.0000    0 1173 -7056.0000 -9763.0000  38.4%     -    0s
     0     0 -8959.0000    0 1578 -7056.0000 -8959.0000  27.0%     -    0s
     0     0 -8953.0000    0 1581 -7056.0000 -8953.0000  26.9%     -    0s
     0     0 -8771.0000    0 1700 -7056.0000 -8771.0000  24.3%     -    1s
     0     0 -8771.0000    0 1700 -7056.0000 -8771.0000  24.3%     -    1s
     0     2 -8771.0000    0 1691 -7056.0000 -8771.0000  24.3%     -    2s
   244   246 -7882.0000  122 2243 -7056.0000 -8760.0000  24.1%   113    5s
   637   606 -7161.5000  270 1969 -7056.0000 -8425.4500  19.4%  75.6   11s
   645   611 -7083.2000  301 2550 -7056.0000 -8211.2132  16.4%  74.7   15s
   650   614 -7557.0000  182 2770 -7056.0000 -8183.1021  16.0%  74.1   20s
   657   619 -7818.0000  135 3129 -7056.0000 -8061.7433  14.3%  73.3   31s
   658   620 -7763.5000  144 3283 -7056.0000 -8040.3655  14.0%  73.2   38s
   659   620 -7076.6000  304 3427 -7056.0000 -8034.5407  13.9%  73.1   40s
   668   626 -7925.2783   72 3769 -7056.0000 -7925.2783  12.3%  72.1   62s
   669   627 -7905.3504   18 3973 -7056.0000 -7905.3504  12.0%  72.0   70s
   671   628 -7474.0000  198 4178 -7056.0000 -7899.0944  11.9%  71.8   75s
   679   634 -7833.0154  110 4470 -7056.0000 -7833.0154  11.0%  71.0  100s
   680   634 -7305.0000  231 4585 -7056.0000 -7819.7404  10.8%  70.9  110s
   682   636 -7176.0000  265 4631 -7056.0000 -7816.2600  10.8%  70.7  115s
   689   640 -7770.2807  128 5016 -7056.0000 -7770.2807  10.1%  69.9  141s
   690   641 -7761.2280   62 5006 -7056.0000 -7761.2280  10.0%  69.8  151s
   691   642 -7758.8591   16 5049 -7056.0000 -7758.8591  10.0%  69.7  155s
   698   646 -7220.0000  250 5155 -7056.0000 -7757.9675  9.95%  69.0  161s
   699   647 -7740.7390  135 5119 -7056.0000 -7740.7390  9.70%  68.9  173s
   700   648 -7736.7350   93 5157 -7056.0000 -7736.7350  9.65%  68.8  182s
   702   649 -7295.0000  233 5214 -7056.0000 -7735.8091  9.63%  68.6  185s
   709   654 -7658.0000  160 5183 -7056.0000 -7716.8546  9.37%  68.0  206s
   710   654 -7712.5419   74 5230 -7056.0000 -7712.5419  9.30%  67.9  214s
   711   655 -7206.0000  257 5264 -7056.0000 -7711.8882  9.30%  67.8  216s
   716   658 -7192.0000  260 5307 -7056.0000 -7711.5562  9.29%  67.3  220s
   717   659 -7251.0000  244 5280 -7056.0000 -7699.8641  9.13%  67.2  232s
   718   660 -7697.1834  130 5319 -7056.0000 -7697.1834  9.09%  67.1  239s
   719   660 -7405.0000  213 5325 -7056.0000 -7696.9057  9.08%  67.0  241s
   725   664 -7155.5000  272 5277 -7056.0000 -7685.8237  8.93%  66.5  259s
   726   665 -7683.4015  120 5339 -7056.0000 -7683.4015  8.89%  66.4  264s
   727   666 -7212.0000  254 5343 -7056.0000 -7682.8669  8.88%  66.3  267s
   732   669 -7425.0000  208 5403 -7056.0000 -7682.6967  8.88%  65.8  270s
   733   670 -7671.9333   90 5361 -7056.0000 -7671.9333  8.73%  65.7  283s
   734   670 -7661.0000  159 5404 -7056.0000 -7669.6366  8.70%  65.7  290s
   740   674 -7669.0805   42 5457 -7056.0000 -7669.0805  8.69%  65.1  295s
   741   675 -7661.2714   93 5394 -7056.0000 -7661.2714  8.58%  65.0  306s
   742   676 -7659.4833  155 5461 -7056.0000 -7659.4833  8.55%  64.9  313s
   744   677 -7183.0000  263 5473 -7056.0000 -7659.2062  8.55%  64.8  315s
   748   680 -7631.0000  165 5388 -7056.0000 -7651.2424  8.44%  64.4  327s
   749   680 -7649.0461   42 5451 -7056.0000 -7649.0461  8.40%  64.3  333s
   750   681 -7557.0000  182 5480 -7056.0000 -7648.7329  8.40%  64.3  335s
   755   684 -7450.0000  202 5442 -7056.0000 -7643.6067  8.33%  63.8  348s
   756   685 -7200.0000  258 5475 -7056.0000 -7642.5048  8.31%  63.7  352s
   759   687 -7076.6000  304 5515 -7056.0000 -7642.2353  8.31%  63.5  355s
   763   690 -7638.8112   21 5466 -7056.0000 -7638.8112  8.26%  63.2  363s
   764   690 -7151.5000  274 5509 -7056.0000 -7638.0463  8.25%  63.1  366s
   769   694 -7634.3231   18 5508 -7056.0000 -7634.3231  8.20%  62.7  376s
   770   694 -7218.0000  252 5548 -7056.0000 -7633.4015  8.18%  62.6  380s
   776   698 -7186.0000  262 5516 -7056.0000 -7630.1973  8.14%  62.1  390s
   777   699 -7629.1393  107 5532 -7056.0000 -7629.1393  8.12%  62.0  395s
   783   703 -7624.6561   96 5561 -7056.0000 -7624.6561  8.06%  61.5  408s
   784   704 -7103.0000  292 5614 -7056.0000 -7623.6875  8.05%  61.5  411s
   789   707 -7621.3394  128 5565 -7056.0000 -7621.3394  8.01%  61.1  421s
   792   709 -7614.0000  168 5588 -7056.0000 -7620.6544  8.00%  60.8  425s
   796   712 -7188.0000  262 5550 -7056.0000 -7618.7506  7.98%  60.5  432s
   798   713 -7220.0000  250 5603 -7056.0000 -7618.1685  7.97%  60.4  435s
   802   716 -7295.0000  233 5608 -7056.0000 -7616.3902  7.94%  60.1  443s
   803   716 -7615.8514   14 5637 -7056.0000 -7615.8514  7.93%  60.0  445s
   818   728 -7615.4899  130 1614 -7056.0000 -7615.4899  7.93%   836  450s
   820   729 -7615.4899  156 4579 -7056.0000 -7615.4899  7.93%   834  486s
   821   730 -7615.4899  100 5365 -7056.0000 -7615.4899  7.93%   833  521s
   822   731 -7488.5000  195 5463 -7056.0000 -7615.4899  7.93%   832  542s
   823   731 -7615.4899   23 5538 -7056.0000 -7615.4899  7.93%   831  551s
   824   732 -7615.4899   29 5592 -7056.0000 -7615.4899  7.93%   830  555s
   829   735 -7615.4899  122 5649 -7056.0000 -7615.4899  7.93%   825  560s
   830   736 -7608.4952  132 5568 -7056.0000 -7608.4952  7.83%   824  574s
   831   737 -7607.5112   51 5608 -7056.0000 -7607.5112  7.82%   823  577s
   835   739 -7607.3414  151 5623 -7056.0000 -7607.3414  7.81%   819  581s
   836   740 -7600.9959  166 5629 -7056.0000 -7600.9959  7.72%   818  596s
   837   741 -7161.5000  270 5658 -7056.0000 -7600.1547  7.71%   817  600s
   842   744 -7596.2547  155 5640 -7056.0000 -7596.2547  7.66%   812  614s
   843   745 -7595.7239   75 5655 -7056.0000 -7595.7239  7.65%   811  618s
   846   747 -7595.5761  132 5685 -7056.0000 -7595.5761  7.65%   808  620s
   849   749 -7591.3229   42 5640 -7056.0000 -7591.3229  7.59%   806  633s
   850   749 -7557.0000  182 5677 -7056.0000 -7590.2588  7.57%   805  638s
   851   750 -7590.0710  124 5691 -7056.0000 -7590.0710  7.57%   804  640s
   855   753 -7450.0000  202 5702 -7056.0000 -7586.9288  7.52%   800  653s
   856   753 -7200.0000  258 5711 -7056.0000 -7586.3575  7.52%   799  656s
   860   756 -7428.0000  207 5737 -7056.0000 -7586.2015  7.51%   795  660s
   861   757 -7583.5824   42 5707 -7056.0000 -7583.5824  7.48%   794  669s
   862   757 -7582.9747   37 5726 -7056.0000 -7582.9747  7.47%   793  673s
   866   760 -7582.8764   13 5746 -7056.0000 -7582.8764  7.47%   790  675s
   868   761 -7581.0303   72 5722 -7056.0000 -7581.0303  7.44%   788  683s
   869   762 -7580.3856   18 5739 -7056.0000 -7580.3856  7.43%   787  687s
   873   765 -7580.2437   68 5766 -7056.0000 -7580.2437  7.43%   783  690s
   875   766 -7161.5000  270 5744 -7056.0000 -7578.2950  7.40%   782  699s
   876   767 -7186.0000  262 5765 -7056.0000 -7577.8212  7.40%   781  703s
   880   769 -7305.0000  231 5812 -7056.0000 -7577.7503  7.39%   777  706s
   881   770 -7575.6026  157 5766 -7056.0000 -7575.6026  7.36%   776  715s
   885   773 -7575.0752    4 5821 -7056.0000 -7575.0752  7.36%   773  721s
   886   773 -7570.5000  180 5801 -7056.0000 -7573.5936  7.34%   772  728s
   887   774 -7330.0000  226 5804 -7056.0000 -7573.0693  7.33%   771  732s
   891   777 -7572.9270   16 5833 -7056.0000 -7572.9270  7.33%   768  736s
   892   777 -7571.9108  168 5794 -7056.0000 -7571.9108  7.31%   767  742s
   894   779 -7571.5629  163 5836 -7056.0000 -7571.5629  7.31%   765  745s
   899   782 -7570.6754  135 5816 -7056.0000 -7570.6754  7.29%   761  753s
   900   783 -7570.3792   93 5832 -7056.0000 -7570.3792  7.29%   760  755s
   905   786 -7569.0810  165 5815 -7056.0000 -7569.0810  7.27%   756  764s
   906   787 -7568.8356  130 5843 -7056.0000 -7568.8356  7.27%   755  766s
   910   789 -7568.7177   74 5862 -7056.0000 -7568.7177  7.27%   752  770s
   911   790 -7206.0000  257 5831 -7056.0000 -7567.4856  7.25%   751  775s
   915   793 -7567.0713  124 5865 -7056.0000 -7567.0713  7.24%   747  780s
   918   795 -7565.4380  130 5826 -7056.0000 -7565.4380  7.22%   745  788s
   919   795 -7405.0000  213 5823 -7056.0000 -7565.1596  7.22%   744  790s
   924   799 -7563.9860   29 5827 -7056.0000 -7563.9860  7.20%   740  798s
   925   799 -7155.5000  272 5843 -7056.0000 -7563.7045  7.20%   739  801s
   929   802 -7563.0113  122 5844 -7056.0000 -7563.0113  7.19%   736  807s
   932   804 -7425.0000  208 5872 -7056.0000 -7562.7543  7.18%   734  810s
   936   807 -7562.1171  166 5844 -7056.0000 -7562.1171  7.17%   731  815s
   941   810 -7561.8273   93 5858 -7056.0000 -7561.8273  7.17%   727  820s
   942   811 -7561.0930  155 5833 -7056.0000 -7561.0930  7.16%   726  825s
   947   814 -7560.8789  170 5859 -7056.0000 -7560.8789  7.16%   722  830s
   948   815 -7559.8614  165 5841 -7056.0000 -7559.8614  7.14%   721  835s
   952   817 -7559.5311    9 5877 -7056.0000 -7559.5311  7.14%   718  840s
   953   818 -7558.7297   86 5863 -7056.0000 -7558.7297  7.12%   718  845s
   959   822 -7076.6000  304 5860 -7056.0000 -7557.6783  7.11%   713  854s
   960   823 -7428.0000  207 5870 -7056.0000 -7557.4936  7.11%   712  856s
   965   826 -7556.9204  173 5865 -7056.0000 -7556.9204  7.10%   709  862s
   967   827 -7218.0000  252 5885 -7056.0000 -7556.6959  7.10%   707  865s
H  970   784                    -7062.000000 -7555.9712  6.99%   705  871s
   976   788 -7186.0000  262 5897 -7062.0000 -7555.7605  6.99%   701  875s
   980   791 -7305.0000  231 5908 -7062.0000 -7555.3595  6.99%   698  880s
   983   793 -7554.7154   96 5898 -7062.0000 -7554.7154  6.98%   696  886s
   988   796 -7307.0000  230 5862 -7062.0000 -7554.0223  6.97%   692  893s
   989   797 -7553.8585  128 5882 -7062.0000 -7553.8585  6.96%   692  895s
   994   800 -7553.2577  163 5854 -7062.0000 -7553.2577  6.96%   688  902s
   996   802 -7188.0000  262 5907 -7062.0000 -7553.0255  6.95%   687  905s
   999   804 -7552.4639  135 5895 -7062.0000 -7552.4639  6.95%   685  910s
  1004   807 -7552.0819  131 5900 -7062.0000 -7552.0819  6.94%   681  917s
  1008   810 -7220.0000  250 5916 -7062.0000 -7551.9534  6.94%   679  920s
  1010   811 -7551.4788   74 5905 -7062.0000 -7551.4788  6.93%   677  925s
  1014   814 -7551.1264   37 5908 -7062.0000 -7551.1264  6.93%   675  930s
  1019   817 -7405.0000  213 5901 -7062.0000 -7550.7860  6.92%   671  936s
  1024   820 -7550.5250   29 5908 -7062.0000 -7550.5250  6.92%   668  941s
  1029   824 -7550.0901  122 5912 -7062.0000 -7550.0901  6.91%   665  947s
  1033   826 -7549.9478   90 5919 -7062.0000 -7549.9478  6.91%   662  950s
  1038   830 -7549.6722   72 5936 -7062.0000 -7549.6722  6.91%   659  955s
  1040   831 -7549.0746   42 5936 -7062.0000 -7549.0746  6.90%   658  960s
  1045   834 -7083.2000  301 5929 -7062.0000 -7548.5410  6.89%   654  966s
  1049   837 -7548.3461   42 5948 -7062.0000 -7548.3461  6.89%   652  970s
  1052   839 -7547.8663    9 5933 -7062.0000 -7547.8663  6.88%   650  975s
  1056   842 -7200.0000  258 5893 -7062.0000 -7547.0472  6.87%   648  983s
  1057   842 -7546.7081  135 5917 -7062.0000 -7546.7081  6.86%   647  987s
  1061   845 -7546.6257   42 5934 -7062.0000 -7546.6257  6.86%   645  990s
  1065   848 -7546.2345  173 5924 -7062.0000 -7546.2345  6.86%   642  995s
  1070   851 -7218.0000  252 5925 -7062.0000 -7546.0583  6.85%   639 1000s
  1073   853 -7545.6108   68 5926 -7062.0000 -7545.6108  6.85%   637 1005s
  1078   856 -7545.3693  159 5934 -7062.0000 -7545.3693  6.84%   634 1010s
  1083   860 -7545.0662   96 5936 -7062.0000 -7545.0662  6.84%   632 1015s
  1087   862 -7330.0000  226 5922 -7062.0000 -7544.6856  6.83%   629 1020s

Cutting planes:
  Gomory: 37
  MIR: 203
  Flow cover: 2346
  Zero half: 751
  Mod-K: 14
  RLT: 250
  BQP: 346

Explored 1091 nodes (1428925 simplex iterations) in 1024.00 seconds (1319.27 work units)
Thread count was 1 (of 72 available processors)

Solution count 5: -7062 -7056 -7044 ... 0

Time limit reached
Best objective -7.062000000000e+03, best bound -7.544000000000e+03, gap 6.8253%

User-callback calls 23282, time in user-callback 0.09 sec

BQP_SOLUTION, 1173, 5176, -2475.000000, 1024.001412, 1, 1, 1, 1, 1, -1, 1, 1, -1, 1, -1, -1, -1, 1, 1, -1, 1, -1, -1, -1, 1, 1, 1, -1, -1, -1, -1, -1, 1, -1, 1, -1, -1, 1, 1, 1, 1, 1, -1, 1, -1, 1, 1, -1, 1, -1, -1, -1, 1, 1, 1, 1, -1, 1, -1, 1, 1, 1, 1, 1, 1, -1, 1, 1, 1, 1, -1, -1, -1, 1, -1, 1, -1, 1, 1, -1, -1, 1, 1, 1, 1, -1, -1, 1, 1, 1, 1, -1, -1, -1, 1, 1, 1, 1, -1, -1, -1, 1, 1, 1, 1, -1, -1, -1, 1, -1, 1, -1, 1, 1, -1, -1, -1, 1, 1, 1, -1, -1, -1, 1, 1, 1, -1, -1, -1, 1, 1, -1, 1, 1, -1, -1, 1, 1, 1, -1, 1, 1, -1, -1, 1, 1, -1, -1, 1, -1, 1, 1, 1, -1, 1, 1, -1, -1, 1, 1, 1, 1, 1, -1, -1, 1, -1, -1, 1, 1, 1, -1, -1, 1, 1, 1, 1, -1, -1, 1, -1, 1, 1, 1, -1, -1, -1, 1, -1, 1, -1, 1, -1, -1, -1, 1, -1, 1, 1, -1, -1, 1, 1, -1, 1, 1, -1, 1, 1, -1, 1, -1, 1, -1, -1, 1, -1, -1, 1, 1, -1, 1, 1, 1, -1, 1, -1, -1, 1, 1, 1, -1, 1, -1, -1, 1, 1, -1, 1, 1, 1, 1, 1, 1, -1, 1, 1, 1, -1, 1, -1, -1, -1, -1, -1, 1, 1, -1, -1, 1, 1, 1, -1, 1, -1, -1, 1, 1, -1, 1, 1, 1, -1, 1, -1, 1, -1, 1, 1, 1, -1, -1, 1, -1, 1, 1, 1, 1, 1, -1, 1, 1, 1, 1, -1, 1, 1, 1, 1, 1, 1, -1, 1, 1, 1, 1, 1, 1, 1, 1, 1, 1, 1, 1, 1, -1, 1, 1, 1, 1, 1, 1, 1, 1, 1, 1, 1, 1, 1, 1, 1, 1, 1, 1, 1, 1, 1, 1, 1, -1, 1, 1, 1, 1, 1, 1, 1, 1, 1, 1, -1, 1, 1, -1, 1, 1, 1, -1, 1, 1, 1, 1, 1, 1, -1, 1, 1, 1, 1, 1, 1, 1, 1, 1, 1, 1, 1, 1, -1, 1, 1, -1, 1, 1, 1, -1, 1, 1, -1, 1, 1, 1, -1, -1, 1, 1, -1, 1, 1, -1, -1, 1, 1, -1, 1, -1, 1, -1, 1, 1, -1, 1, 1, -1, 1, 1, -1, 1, 1, -1, -1, 1, -1, 1, 1, -1, -1, -1, 1, 1, 1, 1, 1, -1, -1, -1, 1, 1, 1, -1, -1, 1, 1, 1, 1, 1, -1, -1, 1, -1, 1, 1, -1, 1, -1, 1, -1, 1, 1, 1, -1, -1, -1, 1, 1, 1, 1, -1, 1, -1, 1, -1, 1, 1, 1, -1, 1, -1, 1, 1, 1, -1, 1, -1, 1, -1, 1, 1, 1, -1, -1, 1, -1, -1, 1, -1, -1, -1, 1, -1, 1, 1, 1, -1, -1, 1, -1, 1, -1, -1, 1, -1, 1, -1, 1, 1, 1, -1, 1, 1, -1, 1, 1, -1, 1, -1, -1, 1, 1, -1, 1, -1, 1, -1, 1, 1, 1, 1, 1, -1, -1, 1, -1, 1, -1, -1, 1, -1, -1, 1, 1, 1, 1, -1, -1, 1, -1, 1, -1, 1, 1, -1, 1, -1, -1, 1, 1, -1, -1, 1, -1, 1, -1, 1, 1, -1, -1, -1, 1, 1, -1, 1, 1, 1, -1, 1, -1, -1, -1, 1, 1, -1, 1, 1, -1, 1, -1, 1, 1, -1, 1, 1, -1, -1, 1, -1, -1, 1, -1, -1, -1, 1, 1, -1, 1, -1, 1, -1, 1, -1, -1, 1, -1, -1, 1, -1, -1, 1, -1, -1, -1, 1, -1, 1, 1, -1, 1, -1, -1, -1, -1, 1, -1, 1, -1, 1, -1, -1, 1, -1, -1, -1, 1, -1, -1, 1, -1, -1, -1, -1, -1, 1, -1, 1, -1, -1, -1, -1, -1, -1, -1, 1, -1, -1, -1, 1, -1, -1, 1, -1, -1, -1, 1, -1, -1, 1, -1, 1, -1, -1, -1, -1, -1, -1, 1, -1, 1, -1, -1, -1, 1, 1, -1, -1, -1, -1, -1, 1, -1, -1, -1, -1, -1, 1, -1, -1, -1, 1, -1, -1, -1, 1, -1, -1, 1, -1, -1, -1, 1, 1, 1, 1, 1, 1, -1, 1, 1, 1, -1, -1, -1, -1, -1, -1, -1, -1, 1, -1, -1, -1, -1, 1, -1, -1, 1, -1, -1, 1, -1, 1, -1, -1, -1, 1, -1, -1, -1, -1, -1, -1, -1, 1, -1, 1, 1, -1, -1, -1, 1, -1, 1, 1, -1, 1, 1, -1, -1, 1, -1, -1, -1, -1, -1, 1, 1, -1, -1, 1, 1, -1, -1, 1, -1, 1, 1, 1, -1, -1, -1, 1, -1, 1, -1, -1, -1, -1, 1, -1, 1, 1, -1, 1, -1, -1, -1, 1, -1, 1, -1, -1, 1, -1, 1, -1, 1, -1, -1, -1, -1, 1, -1, -1, 1, -1, -1, -1, 1, 1, 1, -1, 1, -1, 1, 1, 1, 1, -1, 1, -1, 1, 1, 1, 1, -1, 1, -1, 1, 1, -1, 1, -1, 1, -1, 1, 1, -1, 1, -1, 1, -1, 1, 1, 1, 1, -1, 1, -1, -1, 1, -1, 1, -1, 1, -1, 1, 1, -1, 1, -1, 1, 1, -1, 1, 1, 1, -1, 1, -1, -1, 1, 1, -1, 1, -1, 1, -1, 1, 1, 1, 1, -1, 1, -1, 1, 1, -1, 1, 1, -1, 1, -1, 1, 1, -1, 1, -1, 1, -1, 1, -1, 1, -1, -1, 1, 1, -1, 1, -1, -1, 1, -1, -1, 1, -1, 1, -1, 1, 1, 1, -1, 1, -1, 1, -1, 1, 1, 1, 1, 1, -1, -1, 1, 1, 1, 1, -1, 1, -1, 1, -1, 1, 1, 1, -1, -1, 1, -1, -1, 1, 1, -1, -1, 1, 1, -1, 1, 1, -1, 1, -1, -1, 1, 1, 1, -1, -1, 1, -1, 1, 1, -1, 1, -1, 1, -1, -1, 1, -1, 1, 1, -1, 1, 1, 1, -1, 1, -1, 1, -1, 1, 1, 1, -1, -1, 1, 1, -1, 1, 1, -1, -1, 1, -1, 1, 1, 1, -1, -1, -1, -1, 1, 1, 1, -1, -1, -1, 1, -1, 1, 1, 1, -1, 1, 1, 1, 1, 1, 1, -1, -1, 1, 1, 1, 1, 1, -1, -1, 1, 1, -1, 1, -1, 1, -1, -1, 1, 1, 1, 1, -1, -1, 1, 1, 1, -1, 1, -1, -1, 1, -1, -1, 1, 1, -1, -1, -1, 1, -1, 1, -1, 1, -1, 1, -1, -1, 1, 1, -1, -1, 1, -1, -1, 1, 1, -1, -1, 1, 1, -1, 1, 1, -1, -1, 1, -1, -1, 1, 1, -1, 1, -1, 1, 1, -1, -1, 1, -1, -1, -1, -1, 1, 1, -1, -1, -1, -1, -1, -1, 1, 1, -1, -1, 1, 1, 1, 1, -1, -1, -1, 1, 1, -1, 1, -1, 1, -1, 1
BQP_DATA, 1173, 5176, -2475.000000, -2957.000000, -7062.000000, -7544.000000, 1024.001412, 3351, 1091
